Water Network: d11_kadu.dat
*******************************************************************************

-------------------------------- Solving with gurobi --------------------------
min_demand: 0.0333
max_demand: 0.3067
max_flow: 3.0869000000000004
Gurobi 11.0.2: Set parameter LogToConsole to value 1
  tech:outlev = 1
Set parameter Presolve to value 0
  pre:solve = 0
Set parameter TimeLimit to value 3600
  lim:time = 3600
Set parameter NumericFocus to value 1
  alg:numericfocus = 1
Set parameter InfUnbdInfo to value 1
Gurobi Optimizer version 11.0.2 build v11.0.2rc0 (linux64 - "Ubuntu 25.04")

CPU model: 11th Gen Intel(R) Core(TM) i5-1135G7 @ 2.40GHz, instruction set [SSE2|AVX|AVX2|AVX512]
Thread count: 4 physical cores, 8 logical processors, using up to 8 threads

Optimize a model with 58 rows, 738 columns and 542 nonzeros
Model fingerprint: 0x7b7833a7
Model has 170 quadratic constraints
Model has 68 general constraints
Variable types: 738 continuous, 0 integer (0 binary)
Coefficient statistics:
  Matrix range     [1e+00, 1e+00]
  QMatrix range    [1e-03, 1e+01]
  QLMatrix range   [1e+00, 1e+00]
  Objective range  [1e+03, 2e+04]
  Bounds range     [2e-11, 3e+12]
  RHS range        [3e-02, 3e+03]
  QRHS range       [2e-11, 1e+02]
Warning: Model contains large bounds
Warning: Model contains variables with very large bounds participating
         in product terms.
         Consider bounding these variables or reformulating the model.


Solving non-convex MIQCP

Variable types: 5906 continuous, 0 integer (0 binary)
Warning: switch to quad precision
Warning: 1 variables dropped from basis
Warning: 1 variables dropped from basis
Warning: 1 variables dropped from basis
Warning: 1 variables dropped from basis
Warning: 1 variables dropped from basis
Warning: 1 variables dropped from basis
Warning: 2 variables dropped from basis

Root simplex log...

Iteration    Objective       Primal Inf.    Dual Inf.      Time
   32749    6.1715273e+08   5.083019e+12   0.000000e+00      5s
Warning: 1 variables dropped from basis
Warning: 1 variables dropped from basis
   46430    1.0284419e+08   7.827844e+07   2.571802e+06     10s
   48292   -3.3337259e+08   0.000000e+00   0.000000e+00     12s

Root relaxation: objective -3.333726e+08, 48292 iterations, 12.14 seconds (1.99 work units)

    Nodes    |    Current Node    |     Objective Bounds      |     Work
 Expl Unexpl |  Obj  Depth IntInf | Incumbent    BestBd   Gap | It/Node Time

     0     0    0.00000    0  494          -    0.00000      -     -   12s
     0     0    0.00000    0  372          -    0.00000      -     -   40s
     0     0  postponed    0               -    0.00000      -     -  136s
     0     0  postponed    0               -    0.00000      -     -  262s
Exploring 100 nodes in MinRel heuristic
MinRel: 0 nodes explored, relaxation 1.00e+100, total elapsed time 385s
Model proven infeasible by MinRel heuristic
     0     2  postponed    0               -    0.00000      -     -  417s
     1     2  postponed    1               -    0.00000      - 184007  478s
     3     4  postponed    2               -    0.00000      - 155164  541s
     5     8  postponed    3               -    0.00000      - 130711  589s
     9    10    0.00000    4  456          -    0.00000      - 106263  658s
    13    14    0.00000    4  438          -    0.00000      - 93997  715s
    17    12 infeasible    5               -    0.00000      - 88022  721s
    21    14 3.7458e+07    5  213          -    0.00000      - 75959  781s
    54    35 infeasible    9               -    0.00000      - 30485  785s
   151   111 3.7663e+07   20  164          -    0.00000      - 10912  790s
   205   144 3.7663e+07   26  163          -    0.00000      -  8053  795s
   276   173 3.7663e+07   33  171          -    0.00000      -  6058  800s
   389   220 3.7663e+07   48  171          -    0.00000      -  4305  805s
   532   286 infeasible   63               -    0.00000      -  3152  810s
   697   340 3.7663e+07   84  184          -    0.00000      -  2408  815s
   811   415 3.7663e+07   96  182          -    0.00000      -  2072  821s
   879   453 3.7663e+07  104  179          -    0.00000      -  1914  825s
   962   492 3.7663e+07  117  179          - 3.7458e+07      -  1750  840s
   995   595 3.7458e+07    6  154          - 3.7458e+07      -  1747  856s
  1190   700 infeasible   33               - 3.7458e+07      -  1477  869s
  1461   781 infeasible   63               - 3.7458e+07      -  1214  882s
  1838   887 3.7458e+07   54  168          - 3.7458e+07      -   972  893s
  2139   888 3.7663e+07   35    0          - 3.7458e+07      -   840  901s

Explored 2140 nodes (2496319 simplex iterations) in 910.58 seconds (188.73 work units)
Thread count was 8 (of 8 available processors)

Solution count 0

Model is infeasible
Best objective -, best bound -, gap -
Gurobi 11.0.2: infeasible problem
2.49632e+06 simplex iterations
2140 branching nodes

suffix dunbdd OUT;
*******************************************************************************

Constraints violation:


Sum of constraints violation: 35781.0869
*******************************************************************************

*******************************************************************************

Absolute and relative violations between original and approximation constraint 2:

+-----------------+--------------+--------------------------+------------------------+----------------------+----------------------+
| Constraint ID   |   flow value |   Original Con Violation |   Approx Con Violation |   Absolute Violation |   Relative Violation |
+=================+==============+==========================+========================+======================+======================+
| 1,3             |            0 |                      100 |                    100 |                    0 |                    0 |
+-----------------+--------------+--------------------------+------------------------+----------------------+----------------------+
| 2,14            |            0 |                       95 |                     95 |                    0 |                    0 |
+-----------------+--------------+--------------------------+------------------------+----------------------+----------------------+
| 3,4             |            0 |                        0 |                      0 |                    0 |                    0 |
+-----------------+--------------+--------------------------+------------------------+----------------------+----------------------+
| 4,5             |            0 |                        0 |                      0 |                    0 |                    0 |
+-----------------+--------------+--------------------------+------------------------+----------------------+----------------------+
| 4,9             |            0 |                        0 |                      0 |                    0 |                    0 |
+-----------------+--------------+--------------------------+------------------------+----------------------+----------------------+
| 5,6             |            0 |                        0 |                      0 |                    0 |                    0 |
+-----------------+--------------+--------------------------+------------------------+----------------------+----------------------+
| 6,7             |            0 |                        0 |                      0 |                    0 |                    0 |
+-----------------+--------------+--------------------------+------------------------+----------------------+----------------------+
| 6,10            |            0 |                        0 |                      0 |                    0 |                    0 |
+-----------------+--------------+--------------------------+------------------------+----------------------+----------------------+
| 7,8             |            0 |                        0 |                      0 |                    0 |                    0 |
+-----------------+--------------+--------------------------+------------------------+----------------------+----------------------+
| 8,13            |            0 |                        0 |                      0 |                    0 |                    0 |
+-----------------+--------------+--------------------------+------------------------+----------------------+----------------------+
| 8,14            |            0 |                        0 |                      0 |                    0 |                    0 |
+-----------------+--------------+--------------------------+------------------------+----------------------+----------------------+
| 9,10            |            0 |                        0 |                      0 |                    0 |                    0 |
+-----------------+--------------+--------------------------+------------------------+----------------------+----------------------+
| 9,15            |            0 |                        0 |                      0 |                    0 |                    0 |
+-----------------+--------------+--------------------------+------------------------+----------------------+----------------------+
| 10,11           |            0 |                        0 |                      0 |                    0 |                    0 |
+-----------------+--------------+--------------------------+------------------------+----------------------+----------------------+
| 10,19           |            0 |                        0 |                      0 |                    0 |                    0 |
+-----------------+--------------+--------------------------+------------------------+----------------------+----------------------+
| 11,12           |            0 |                        0 |                      0 |                    0 |                    0 |
+-----------------+--------------+--------------------------+------------------------+----------------------+----------------------+
| 12,13           |            0 |                        0 |                      0 |                    0 |                    0 |
+-----------------+--------------+--------------------------+------------------------+----------------------+----------------------+
| 13,16           |            0 |                        0 |                      0 |                    0 |                    0 |
+-----------------+--------------+--------------------------+------------------------+----------------------+----------------------+
| 13,20           |            0 |                        0 |                      0 |                    0 |                    0 |
+-----------------+--------------+--------------------------+------------------------+----------------------+----------------------+
| 14,17           |            0 |                        0 |                      0 |                    0 |                    0 |
+-----------------+--------------+--------------------------+------------------------+----------------------+----------------------+
| 15,18           |            0 |                        0 |                      0 |                    0 |                    0 |
+-----------------+--------------+--------------------------+------------------------+----------------------+----------------------+
| 16,21           |            0 |                        0 |                      0 |                    0 |                    0 |
+-----------------+--------------+--------------------------+------------------------+----------------------+----------------------+
| 17,21           |            0 |                        0 |                      0 |                    0 |                    0 |
+-----------------+--------------+--------------------------+------------------------+----------------------+----------------------+
| 17,22           |            0 |                        0 |                      0 |                    0 |                    0 |
+-----------------+--------------+--------------------------+------------------------+----------------------+----------------------+
| 18,23           |            0 |                        0 |                      0 |                    0 |                    0 |
+-----------------+--------------+--------------------------+------------------------+----------------------+----------------------+
| 19,20           |            0 |                        0 |                      0 |                    0 |                    0 |
+-----------------+--------------+--------------------------+------------------------+----------------------+----------------------+
| 19,24           |            0 |                        0 |                      0 |                    0 |                    0 |
+-----------------+--------------+--------------------------+------------------------+----------------------+----------------------+
| 20,21           |            0 |                        0 |                      0 |                    0 |                    0 |
+-----------------+--------------+--------------------------+------------------------+----------------------+----------------------+
| 20,25           |            0 |                        0 |                      0 |                    0 |                    0 |
+-----------------+--------------+--------------------------+------------------------+----------------------+----------------------+
| 21,26           |            0 |                        0 |                      0 |                    0 |                    0 |
+-----------------+--------------+--------------------------+------------------------+----------------------+----------------------+
| 22,26           |            0 |                        0 |                      0 |                    0 |                    0 |
+-----------------+--------------+--------------------------+------------------------+----------------------+----------------------+
| 23,24           |            0 |                        0 |                      0 |                    0 |                    0 |
+-----------------+--------------+--------------------------+------------------------+----------------------+----------------------+
| 24,25           |            0 |                        0 |                      0 |                    0 |                    0 |
+-----------------+--------------+--------------------------+------------------------+----------------------+----------------------+
| 25,26           |            0 |                        0 |                      0 |                    0 |                    0 |
+-----------------+--------------+--------------------------+------------------------+----------------------+----------------------+

Sum of violation of original headloss constraint: 195.0
Sum of violation of approx headloss constraint: 195.0

Con2 sum of absolute violation between original function and approximate function: 0.0
Con2 sum of relative violation between original function and approximate function: 0.0
*******************************************************************************

Total cost using gurobi: 0.0
gurobi solve time: 911.22 seconds
*******************************************************************************

